formal_verification/runs/model_eval_v7_100/case_022/run/model/design_smt2.smt2
; SMT-LIBv2 description generated by Yosys 0.64+40 (git sha1 90b906c4f, clang++ 18.1.8 -fPIC -O3)
; yosys-smt2-module vert_formal_wrap
(declare-sort |vert_formal_wrap_s| 0)
(declare-fun |vert_formal_wrap_is| (|vert_formal_wrap_s|) Bool)
; yosys-smt2-witness {"offset": 0, "path": ["$auto$async2sync.cc:107:execute$102"], "smtname": 0, "smtoffset": 0, "type": "reg", "width": 1}
(declare-fun |vert_formal_wrap#0| (|vert_formal_wrap_s|) (_ BitVec 1)) ; $auto$async2sync.cc:107:execute$102
; yosys-smt2-register $auto$async2sync.cc:107:execute$102 1
(define-fun |vert_formal_wrap_n $auto$async2sync.cc:107:execute$102| ((state |vert_formal_wrap_s|)) Bool (= ((_ extract 0 0) (|vert_formal_wrap#0| state)) #b1))
; yosys-smt2-witness {"offset": 0, "path": ["\\_started"], "smtname": 1, "smtoffset": 0, "type": "reg", "width": 1}
(declare-fun |vert_formal_wrap#1| (|vert_formal_wrap_s|) (_ BitVec 1)) ; \_started
; yosys-smt2-register _started 1
; yosys-smt2-wire _started 1
(define-fun |vert_formal_wrap_n _started| ((state |vert_formal_wrap_s|)) Bool (= ((_ extract 0 0) (|vert_formal_wrap#1| state)) #b1))
; yosys-smt2-anyseq vert_formal_wrap#2 1 $auto$setundef.cc:350:execute$140
; yosys-smt2-witness {"offset": 0, "path": ["\\async_clk_8"], "smtname": 2, "smtoffset": 0, "type": "seq", "width": 1}
(declare-fun |vert_formal_wrap#2| (|vert_formal_wrap_s|) (_ BitVec 1)) ; \async_clk_8
; yosys-smt2-wire async_clk_8 1
; yosys-smt2-clock async_clk_8 posedge
(define-fun |vert_formal_wrap_n async_clk_8| ((state |vert_formal_wrap_s|)) Bool (= ((_ extract 0 0) (|vert_formal_wrap#2| state)) #b1))
; yosys-smt2-wire auth_15 32
(define-fun |vert_formal_wrap_n auth_15| ((state |vert_formal_wrap_s|)) (_ BitVec 32) #b00000000000000000000000000000000)
; yosys-smt2-wire b10100x 32
(define-fun |vert_formal_wrap_n b10100x| ((state |vert_formal_wrap_s|)) (_ BitVec 32) #b00000000000000000000000000000000)
; yosys-smt2-wire bx0xxx0 32
(define-fun |vert_formal_wrap_n bx0xxx0| ((state |vert_formal_wrap_s|)) (_ BitVec 32) #b00000000000000000000000000000000)
; yosys-smt2-wire chip_11 32
(define-fun |vert_formal_wrap_n chip_11| ((state |vert_formal_wrap_s|)) (_ BitVec 32) #b00000000000000000000000000000000)
; yosys-smt2-wire clk_10 32
(define-fun |vert_formal_wrap_n clk_10| ((state |vert_formal_wrap_s|)) (_ BitVec 32) #b00000000000000000000000000000000)
; yosys-smt2-wire control_data_9 32
(define-fun |vert_formal_wrap_n control_data_9| ((state |vert_formal_wrap_s|)) (_ BitVec 32) #b00000000000000000000000000000000)
; yosys-smt2-wire err_13 32
(define-fun |vert_formal_wrap_n err_13| ((state |vert_formal_wrap_s|)) (_ BitVec 32) #b00000000000000000000000000000000)
; yosys-smt2-wire err_14 32
(define-fun |vert_formal_wrap_n err_14| ((state |vert_formal_wrap_s|)) (_ BitVec 32) #b00000000000000000000000000000000)
; yosys-smt2-wire err_7 32
(define-fun |vert_formal_wrap_n err_7| ((state |vert_formal_wrap_s|)) (_ BitVec 32) #b00000000000000000000000000000000)
; yosys-smt2-wire err_9 32
(define-fun |vert_formal_wrap_n err_9| ((state |vert_formal_wrap_s|)) (_ BitVec 32) #b00000000000000000000000000000000)
; yosys-smt2-wire fsm_10 32
(define-fun |vert_formal_wrap_n fsm_10| ((state |vert_formal_wrap_s|)) (_ BitVec 32) #b00000000000000000000000000000000)
; yosys-smt2-wire fsm_5 32
(define-fun |vert_formal_wrap_n fsm_5| ((state |vert_formal_wrap_s|)) (_ BitVec 32) #b00000000000000000000000000000000)
; yosys-smt2-wire fsm_9 32
(define-fun |vert_formal_wrap_n fsm_9| ((state |vert_formal_wrap_s|)) (_ BitVec 32) #b00000000000000000000000000000000)
; yosys-smt2-wire hw_19 32
(define-fun |vert_formal_wrap_n hw_19| ((state |vert_formal_wrap_s|)) (_ BitVec 32) #b00000000000000000000000000000000)
; yosys-smt2-wire hw_3 32
(define-fun |vert_formal_wrap_n hw_3| ((state |vert_formal_wrap_s|)) (_ BitVec 32) #b00000000000000000000000000000000)
; yosys-smt2-wire reg_13 32
(define-fun |vert_formal_wrap_n reg_13| ((state |vert_formal_wrap_s|)) (_ BitVec 32) #b00000000000000000000000000000000)
; yosys-smt2-wire rst 1
(define-fun |vert_formal_wrap_n rst| ((state |vert_formal_wrap_s|)) Bool false)
; yosys-smt2-wire tx_10 32
(define-fun |vert_formal_wrap_n tx_10| ((state |vert_formal_wrap_s|)) (_ BitVec 32) #b00000000000000000000000000000000)
(define-fun |vert_formal_wrap#3| ((state |vert_formal_wrap_s|)) (_ BitVec 1) (bvnot (|vert_formal_wrap#2| state))) ; $auto$rtlil.cc:3255:Not$145
; yosys-smt2-assume 0 $auto$formalff.cc:987:execute$146
(define-fun |vert_formal_wrap_u 0| ((state |vert_formal_wrap_s|)) Bool (or (= ((_ extract 0 0) (|vert_formal_wrap#3| state)) #b1) (not true))) ; $auto$formalff.cc:987:execute$146
; yosys-smt2-assert 0 _witness_.check_assert_vert_formal_wrap_sv_73_5 vert_formal_wrap.sv:73.7-73.115
(define-fun |vert_formal_wrap_a 0| ((state |vert_formal_wrap_s|)) Bool (or true (not (= ((_ extract 0 0) (|vert_formal_wrap#0| state)) #b1)))) ; _witness_.check_assert_vert_formal_wrap_sv_73_5
; yosys-smt2-assert 1 _witness_.check_assert_vert_formal_wrap_sv_74_14 vert_formal_wrap.sv:74.5-74.114
(define-fun |vert_formal_wrap_a 1| ((state |vert_formal_wrap_s|)) Bool (or true (not (= ((_ extract 0 0) (|vert_formal_wrap#0| state)) #b1)))) ; _witness_.check_assert_vert_formal_wrap_sv_74_14
; yosys-smt2-assert 2 _witness_.check_assert_vert_formal_wrap_sv_75_23 vert_formal_wrap.sv:75.5-75.145
(define-fun |vert_formal_wrap_a 2| ((state |vert_formal_wrap_s|)) Bool (or true (not (= ((_ extract 0 0) (|vert_formal_wrap#0| state)) #b1)))) ; _witness_.check_assert_vert_formal_wrap_sv_75_23
(define-fun |vert_formal_wrap#4| ((state |vert_formal_wrap_s|)) (_ BitVec 1) (ite (= ((_ extract 0 0) (|vert_formal_wrap#1| state)) #b1) #b1 #b0)) ; $assert$vert_formal_wrap.sv:73$5_EN
; yosys-smt2-assume 1 _witness_.check_assume_vert_formal_wrap_sv_72_3 vert_formal_wrap.sv:72.5-72.18
(define-fun |vert_formal_wrap_u 1| ((state |vert_formal_wrap_s|)) Bool (or true (not (= ((_ extract 0 0) (|vert_formal_wrap#4| state)) #b1)))) ; _witness_.check_assume_vert_formal_wrap_sv_72_3
(define-fun |vert_formal_wrap_a| ((state |vert_formal_wrap_s|)) Bool (and
  (|vert_formal_wrap_a 0| state)
  (|vert_formal_wrap_a 1| state)
  (|vert_formal_wrap_a 2| state)
))
(define-fun |vert_formal_wrap_u| ((state |vert_formal_wrap_s|)) Bool (and
  (|vert_formal_wrap_u 0| state)
  (|vert_formal_wrap_u 1| state)
))
(define-fun |vert_formal_wrap_i| ((state |vert_formal_wrap_s|)) Bool (and
  (= (= ((_ extract 0 0) (|vert_formal_wrap#0| state)) #b1) false) ; $auto$async2sync.cc:107:execute$102
  (= (= ((_ extract 0 0) (|vert_formal_wrap#1| state)) #b1) false) ; _started
))
(define-fun |vert_formal_wrap_h| ((state |vert_formal_wrap_s|)) Bool true)
(define-fun |vert_formal_wrap_t| ((state |vert_formal_wrap_s|) (next_state |vert_formal_wrap_s|)) Bool (and
  (= #b1 (|vert_formal_wrap#1| next_state)) ; $procdff$95 \_started
  (= (|vert_formal_wrap#4| state) (|vert_formal_wrap#0| next_state)) ; $auto$async2sync.cc:110:execute$104 $auto$async2sync.cc:107:execute$102
)) ; end of module vert_formal_wrap
; yosys-smt2-topmod vert_formal_wrap
; end of yosys output
